certificates/rado_a7_c25_N15.cnf
c Rad2 upper bound instance: x1 + 7*x2 - x3 = 25, interval [1,15]
p cnf 15 64
1 4 0
-1 -4 0
1 5 11 0
-1 -5 -11 0
2 4 5 0
-2 -4 -5 0
2 5 12 0
-2 -5 -12 0
3 4 6 0
-3 -4 -6 0
3 5 13 0
-3 -5 -13 0
4 7 0
-4 -7 0
4 5 14 0
-4 -5 -14 0
1 3 5 0
-1 -3 -5 0
4 5 8 0
-4 -5 -8 0
5 15 0
-5 -15 0
2 3 6 0
-2 -3 -6 0
4 6 9 0
-4 -6 -9 0
3 7 0
-3 -7 0
4 7 10 0
-4 -7 -10 0
3 4 8 0
-3 -4 -8 0
4 8 11 0
-4 -8 -11 0
3 5 9 0
-3 -5 -9 0
4 9 12 0
-4 -9 -12 0
3 6 10 0
-3 -6 -10 0
4 10 13 0
-4 -10 -13 0
3 7 11 0
-3 -7 -11 0
4 11 14 0
-4 -11 -14 0
1 2 12 0
-1 -2 -12 0
3 8 12 0
-3 -8 -12 0
4 12 15 0
-4 -12 -15 0
2 13 0
-2 -13 0
3 9 13 0
-3 -9 -13 0
2 3 14 0
-2 -3 -14 0
3 10 14 0
-3 -10 -14 0
2 4 15 0
-2 -4 -15 0
3 11 15 0
-3 -11 -15 0
