certificates/rado_a7_c25_N15.drat
2 -15 0
-15 0
5 0
-2 0
13 0
4 0
-3 0
-1 0
-7 0
-14 0
-8 0
-10 0
6 0
0
